N = 11;
H = 6;
T = 2;

avail = array3d(1..N, 1..H, 1..T, [2, 5, 7, 10, 0, 7, 6, 8, 9, 0, 6, 3, 0, 9, 8, 5, 10, 2, 4, 5, 1, 6, 6, 3, 6, 0, 3, 2, 7, 4, 1, 5, 2, 7, 0, 5, 10, 1, 7, 1, 10, 0, 6, 4, 3, 1, 3, 2, 8, 1, 9, 8, 3, 7, 9, 1, 2, 6, 3, 10, 2, 0, 7, 7, 4, 6, 10, 10, 4, 3, 10, 8, 6, 3, 1, 6, 5, 10, 4, 5, 6, 3, 0, 8, 2, 10, 0, 9, 2, 9, 5, 5, 6, 6, 2, 2, 8, 4, 4, 0, 8, 1, 8, 1, 5, 9, 2, 5, 8, 4, 0, 6, 9, 9, 5, 5, 3, 6, 7, 6, 2, 0, 1, 10, 9, 2, 9, 1, 10, 6, 4, 4]);

r = array2d(1..H, 1..T, [2, 2, 2, 0, 3, 2, 3, 2, 2, 1, 4, 2]);
